p edge 150 2235
e 1 13
e 1 15
e 1 22
e 1 32
e 1 38
e 1 41
e 1 51
e 1 63
e 1 64
e 1 67
e 1 76
e 1 78
e 1 82
e 1 83
e 1 98
e 1 99
e 1 100
e 1 101
e 1 103
e 1 106
e 1 108
e 1 113
e 1 115
e 1 116
e 1 120
e 1 122
e 1 128
e 1 133
e 1 136
e 1 142
e 1 148
e 2 20
e 2 28
e 2 38
e 2 48
e 2 55
e 2 57
e 2 64
e 2 67
e 2 71
e 2 73
e 2 97
e 2 98
e 2 106
e 2 109
e 2 110
e 2 115
e 2 120
e 2 131
e 2 136
e 2 138
e 2 148
e 3 5
e 3 6
e 3 7
e 3 14
e 3 15
e 3 31
e 3 34
e 3 36
e 3 42
e 3 51
e 3 58
e 3 62
e 3 66
e 3 73
e 3 74
e 3 82
e 3 85
e 3 91
e 3 92
e 3 101
e 3 104
e 3 107
e 3 109
e 3 112
e 3 115
e 3 118
e 3 121
e 3 122
e 3 124
e 3 126
e 3 129
e 3 133
e 3 136
e 3 143
e 3 144
e 3 145
e 3 148
e 4 11
e 4 13
e 4 15
e 4 16
e 4 23
e 4 26
e 4 39
e 4 42
e 4 51
e 4 52
e 4 55
e 4 60
e 4 63
e 4 64
e 4 70
e 4 77
e 4 84
e 4 92
e 4 100
e 4 116
e 4 119
e 4 128
e 4 141
e 4 142
e 4 143
e 5 6
e 5 10
e 5 13
e 5 23
e 5 26
e 5 28
e 5 31
e 5 34
e 5 35
e 5 38
e 5 40
e 5 43
e 5 47
e 5 55
e 5 63
e 5 69
e 5 85
e 5 94
e 5 97
e 5 108
e 5 112
e 5 117
e 5 120
e 5 126
e 5 142
e 5 143
e 5 147
e 6 7
e 6 9
e 6 12
e 6 14
e 6 24
e 6 30
e 6 31
e 6 37
e 6 38
e 6 40
e 6 41
e 6 44
e 6 49
e 6 54
e 6 57
e 6 58
e 6 62
e 6 70
e 6 73
e 6 85
e 6 86
e 6 88
e 6 89
e 6 91
e 6 101
e 6 112
e 6 114
e 6 117
e 6 122
e 6 126
e 6 139
e 6 140
e 6 141
e 6 144
e 6 145
e 6 149
e 7 14
e 7 18
e 7 19
e 7 36
e 7 38
e 7 43
e 7 51
e 7 52
e 7 57
e 7 63
e 7 67
e 7 71
e 7 79
e 7 84
e 7 86
e 7 96
e 7 105
e 7 106
e 7 109
e 7 112
e 7 115
e 7 116
e 7 120
e 7 121
e 7 123
e 7 124
e 7 125
e 7 141
e 8 11
e 8 12
e 8 13
e 8 22
e 8 36
e 8 42
e 8 51
e 8 52
e 8 57
e 8 58
e 8 61
e 8 63
e 8 71
e 8 76
e 8 88
e 8 89
e 8 92
e 8 94
e 8 100
e 8 102
e 8 103
e 8 107
e 8 110
e 8 116
e 8 122
e 8 126
e 8 137
e 8 142
e 8 144
e 8 148
e 8 150
e 9 26
e 9 29
e 9 30
e 9 41
e 9 42
e 9 44
e 9 49
e 9 50
e 9 59
e 9 66
e 9 67
e 9 72
e 9 78
e 9 81
e 9 94
e 9 102
e 9 108
e 9 109
e 9 110
e 9 114
e 9 116
e 9 123
e 9 128
e 9 137
e 9 139
e 9 148
e 9 150
e 10 11
e 10 13
e 10 16
e 10 20
e 10 26
e 10 29
e 10 31
e 10 34
e 10 39
e 10 41
e 10 42
e 10 43
e 10 44
e 10 49
e 10 54
e 10 56
e 10 58
e 10 60
e 10 62
e 10 70
e 10 71
e 10 76
e 10 77
e 10 78
e 10 80
e 10 99
e 10 105
e 10 114
e 10 117
e 10 138
e 10 141
e 11 34
e 11 48
e 11 62
e 11 68
e 11 72
e 11 74
e 11 80
e 11 91
e 11 94
e 11 123
e 11 124
e 11 127
e 11 132
e 11 143
e 11 150
e 12 27
e 12 32
e 12 48
e 12 51
e 12 58
e 12 63
e 12 75
e 12 76
e 12 87
e 12 89
e 12 94
e 12 95
e 12 97
e 12 108
e 12 111
e 12 128
e 12 129
e 12 133
e 12 137
e 12 145
e 13 16
e 13 17
e 13 19
e 13 20
e 13 23
e 13 24
e 13 29
e 13 31
e 13 34
e 13 37
e 13 39
e 13 40
e 13 48
e 13 49
e 13 50
e 13 55
e 13 57
e 13 61
e 13 63
e 13 65
e 13 68
e 13 70
e 13 71
e 13 72
e 13 79
e 13 85
e 13 86
e 13 87
e 13 90
e 13 91
e 13 92
e 13 98
e 13 103
e 13 108
e 13 115
e 13 116
e 13 122
e 13 124
e 13 128
e 13 134
e 13 140
e 13 141
e 13 146
e 14 17
e 14 18
e 14 27
e 14 37
e 14 41
e 14 42
e 14 45
e 14 58
e 14 68
e 14 77
e 14 82
e 14 86
e 14 89
e 14 92
e 14 112
e 14 114
e 14 115
e 14 116
e 14 125
e 14 136
e 14 143
e 14 147
e 15 19
e 15 21
e 15 23
e 15 26
e 15 34
e 15 37
e 15 39
e 15 43
e 15 48
e 15 62
e 15 66
e 15 67
e 15 80
e 15 81
e 15 82
e 15 83
e 15 86
e 15 94
e 15 97
e 15 98
e 15 105
e 15 109
e 15 115
e 15 118
e 15 122
e 15 125
e 15 130
e 15 142
e 15 146
e 15 148
e 16 18
e 16 31
e 16 44
e 16 46
e 16 62
e 16 65
e 16 69
e 16 73
e 16 81
e 16 83
e 16 87
e 16 89
e 16 92
e 16 97
e 16 104
e 16 110
e 16 111
e 16 119
e 16 120
e 16 122
e 16 123
e 16 124
e 16 132
e 16 134
e 16 135
e 16 141
e 16 142
e 16 144
e 17 27
e 17 37
e 17 46
e 17 48
e 17 49
e 17 59
e 17 67
e 17 68
e 17 71
e 17 76
e 17 78
e 17 82
e 17 84
e 17 85
e 17 89
e 17 92
e 17 94
e 17 99
e 17 103
e 17 109
e 17 116
e 17 122
e 17 133
e 17 139
e 17 148
e 18 19
e 18 30
e 18 42
e 18 50
e 18 68
e 18 71
e 18 75
e 18 76
e 18 77
e 18 90
e 18 92
e 18 96
e 18 100
e 18 103
e 18 108
e 18 110
e 18 117
e 18 127
e 18 134
e 18 141
e 18 144
e 19 20
e 19 22
e 19 26
e 19 27
e 19 29
e 19 30
e 19 34
e 19 36
e 19 45
e 19 50
e 19 58
e 19 66
e 19 67
e 19 70
e 19 74
e 19 84
e 19 87
e 19 90
e 19 92
e 19 98
e 19 99
e 19 100
e 19 105
e 19 108
e 19 110
e 19 112
e 19 115
e 19 123
e 19 127
e 19 131
e 19 136
e 19 138
e 19 141
e 19 146
e 19 149
e 20 29
e 20 35
e 20 37
e 20 42
e 20 49
e 20 50
e 20 52
e 20 53
e 20 61
e 20 66
e 20 67
e 20 70
e 20 76
e 20 77
e 20 85
e 20 89
e 20 92
e 20 93
e 20 98
e 20 106
e 20 109
e 20 114
e 20 120
e 20 121
e 20 122
e 20 124
e 20 128
e 20 135
e 20 136
e 20 137
e 20 146
e 20 149
e 21 26
e 21 33
e 21 35
e 21 37
e 21 40
e 21 42
e 21 44
e 21 49
e 21 50
e 21 54
e 21 58
e 21 81
e 21 85
e 21 87
e 21 91
e 21 92
e 21 93
e 21 95
e 21 98
e 21 99
e 21 117
e 21 126
e 21 133
e 21 137
e 21 139
e 21 140
e 21 143
e 21 145
e 21 150
e 22 23
e 22 39
e 22 43
e 22 44
e 22 45
e 22 50
e 22 69
e 22 80
e 22 81
e 22 94
e 22 95
e 22 99
e 22 101
e 22 104
e 22 116
e 22 123
e 22 124
e 22 127
e 22 129
e 22 130
e 22 131
e 22 142
e 22 147
e 23 24
e 23 32
e 23 39
e 23 41
e 23 44
e 23 51
e 23 59
e 23 62
e 23 66
e 23 71
e 23 75
e 23 76
e 23 80
e 23 84
e 23 90
e 23 93
e 23 96
e 23 100
e 23 106
e 23 108
e 23 109
e 23 115
e 23 120
e 23 122
e 23 125
e 23 130
e 23 134
e 23 135
e 23 140
e 23 141
e 23 145
e 23 146
e 23 147
e 24 32
e 24 33
e 24 39
e 24 44
e 24 45
e 24 47
e 24 48
e 24 55
e 24 57
e 24 60
e 24 66
e 24 81
e 24 92
e 24 98
e 24 100
e 24 106
e 24 114
e 24 115
e 24 126
e 24 136
e 24 137
e 24 144
e 25 26
e 25 28
e 25 45
e 25 50
e 25 52
e 25 54
e 25 60
e 25 62
e 25 63
e 25 81
e 25 84
e 25 88
e 25 89
e 25 93
e 25 95
e 25 96
e 25 109
e 25 112
e 25 115
e 25 123
e 25 124
e 25 125
e 25 129
e 25 135
e 25 136
e 25 139
e 25 145
e 25 150
e 26 27
e 26 36
e 26 46
e 26 47
e 26 53
e 26 54
e 26 59
e 26 64
e 26 69
e 26 75
e 26 77
e 26 81
e 26 83
e 26 86
e 26 90
e 26 101
e 26 104
e 26 105
e 26 109
e 26 113
e 26 124
e 26 125
e 26 126
e 26 130
e 26 131
e 26 141
e 26 143
e 26 146
e 26 147
e 26 150
e 27 28
e 27 31
e 27 44
e 27 49
e 27 53
e 27 58
e 27 61
e 27 64
e 27 73
e 27 84
e 27 89
e 27 94
e 27 101
e 27 102
e 27 108
e 27 114
e 27 127
e 27 131
e 27 135
e 27 142
e 27 148
e 28 30
e 28 33
e 28 36
e 28 47
e 28 52
e 28 67
e 28 69
e 28 73
e 28 95
e 28 100
e 28 102
e 28 103
e 28 105
e 28 108
e 28 109
e 28 130
e 28 137
e 28 139
e 28 140
e 28 144
e 28 145
e 28 149
e 29 37
e 29 38
e 29 40
e 29 58
e 29 67
e 29 69
e 29 71
e 29 82
e 29 99
e 29 101
e 29 111
e 29 112
e 29 116
e 29 133
e 29 135
e 29 143
e 29 145
e 29 146
e 29 148
e 30 31
e 30 40
e 30 42
e 30 52
e 30 54
e 30 56
e 30 57
e 30 70
e 30 73
e 30 75
e 30 81
e 30 89
e 30 95
e 30 96
e 30 100
e 30 115
e 30 116
e 30 119
e 30 120
e 30 126
e 30 128
e 30 140
e 30 142
e 30 143
e 30 149
e 31 32
e 31 33
e 31 36
e 31 43
e 31 54
e 31 63
e 31 64
e 31 71
e 31 78
e 31 81
e 31 93
e 31 101
e 31 105
e 31 113
e 31 120
e 31 121
e 31 122
e 31 125
e 31 128
e 31 130
e 31 144
e 32 40
e 32 43
e 32 49
e 32 56
e 32 57
e 32 59
e 32 65
e 32 69
e 32 74
e 32 81
e 32 88
e 32 92
e 32 97
e 32 103
e 32 104
e 32 108
e 32 112
e 32 114
e 32 124
e 32 133
e 32 141
e 32 144
e 33 43
e 33 51
e 33 54
e 33 55
e 33 57
e 33 59
e 33 61
e 33 62
e 33 64
e 33 65
e 33 75
e 33 77
e 33 82
e 33 83
e 33 85
e 33 104
e 33 112
e 33 113
e 33 114
e 33 116
e 33 121
e 33 136
e 34 35
e 34 45
e 34 46
e 34 52
e 34 54
e 34 69
e 34 79
e 34 97
e 34 101
e 34 109
e 34 112
e 34 122
e 34 126
e 34 133
e 34 134
e 34 136
e 34 140
e 35 37
e 35 38
e 35 39
e 35 42
e 35 45
e 35 52
e 35 55
e 35 57
e 35 62
e 35 63
e 35 65
e 35 69
e 35 70
e 35 73
e 35 77
e 35 78
e 35 80
e 35 88
e 35 98
e 35 100
e 35 102
e 35 105
e 35 106
e 35 108
e 35 110
e 35 111
e 35 122
e 35 123
e 35 126
e 35 141
e 35 144
e 35 147
e 35 148
e 36 39
e 36 43
e 36 46
e 36 50
e 36 58
e 36 63
e 36 64
e 36 65
e 36 66
e 36 71
e 36 76
e 36 78
e 36 88
e 36 92
e 36 99
e 36 102
e 36 108
e 36 109
e 36 110
e 36 111
e 36 112
e 36 117
e 36 123
e 36 126
e 36 130
e 36 133
e 36 135
e 36 137
e 36 141
e 37 40
e 37 44
e 37 48
e 37 50
e 37 55
e 37 61
e 37 62
e 37 74
e 37 77
e 37 79
e 37 85
e 37 98
e 37 102
e 37 119
e 37 120
e 37 126
e 37 129
e 37 131
e 37 133
e 37 138
e 37 145
e 37 149
e 37 150
e 38 40
e 38 42
e 38 43
e 38 47
e 38 48
e 38 49
e 38 50
e 38 51
e 38 53
e 38 54
e 38 55
e 38 58
e 38 59
e 38 65
e 38 70
e 38 72
e 38 73
e 38 81
e 38 85
e 38 86
e 38 91
e 38 97
e 38 102
e 38 104
e 38 105
e 38 107
e 38 108
e 38 113
e 38 117
e 38 122
e 38 134
e 38 136
e 38 144
e 38 148
e 38 149
e 39 52
e 39 56
e 39 58
e 39 61
e 39 67
e 39 72
e 39 74
e 39 76
e 39 77
e 39 96
e 39 101
e 39 102
e 39 107
e 39 109
e 39 121
e 39 137
e 39 140
e 39 148
e 39 149
e 40 44
e 40 55
e 40 57
e 40 60
e 40 64
e 40 79
e 40 84
e 40 88
e 40 91
e 40 112
e 40 113
e 40 114
e 40 123
e 40 126
e 40 137
e 40 144
e 40 146
e 40 148
e 41 43
e 41 46
e 41 54
e 41 62
e 41 64
e 41 68
e 41 77
e 41 83
e 41 86
e 41 93
e 41 99
e 41 106
e 41 110
e 41 114
e 41 121
e 41 123
e 42 51
e 42 53
e 42 57
e 42 65
e 42 66
e 42 70
e 42 71
e 42 73
e 42 84
e 42 89
e 42 97
e 42 98
e 42 100
e 42 106
e 42 108
e 42 112
e 42 122
e 42 124
e 42 125
e 42 128
e 42 133
e 42 140
e 42 149
e 43 57
e 43 59
e 43 64
e 43 65
e 43 73
e 43 74
e 43 81
e 43 82
e 43 89
e 43 91
e 43 109
e 43 110
e 43 111
e 43 123
e 43 127
e 43 141
e 43 145
e 43 146
e 43 149
e 44 48
e 44 50
e 44 56
e 44 57
e 44 58
e 44 63
e 44 72
e 44 82
e 44 85
e 44 90
e 44 95
e 44 97
e 44 98
e 44 100
e 44 102
e 44 112
e 44 120
e 44 122
e 44 123
e 44 125
e 44 126
e 44 133
e 44 136
e 44 137
e 45 50
e 45 51
e 45 67
e 45 68
e 45 69
e 45 77
e 45 78
e 45 80
e 45 83
e 45 88
e 45 103
e 45 106
e 45 110
e 45 119
e 45 124
e 45 126
e 45 133
e 45 138
e 45 144
e 45 149
e 46 60
e 46 68
e 46 76
e 46 81
e 46 84
e 46 88
e 46 99
e 46 102
e 46 105
e 46 123
e 46 125
e 46 129
e 46 134
e 46 141
e 46 143
e 46 144
e 46 146
e 46 148
e 47 55
e 47 63
e 47 65
e 47 75
e 47 79
e 47 81
e 47 86
e 47 88
e 47 93
e 47 99
e 47 101
e 47 103
e 47 108
e 47 109
e 47 110
e 47 112
e 47 120
e 47 123
e 47 130
e 47 133
e 47 135
e 47 138
e 47 147
e 48 49
e 48 55
e 48 57
e 48 58
e 48 61
e 48 62
e 48 73
e 48 78
e 48 85
e 48 97
e 48 98
e 48 109
e 48 118
e 48 124
e 48 134
e 48 146
e 49 51
e 49 55
e 49 70
e 49 75
e 49 77
e 49 78
e 49 80
e 49 89
e 49 94
e 49 98
e 49 100
e 49 106
e 49 110
e 49 118
e 49 120
e 49 121
e 49 135
e 49 138
e 49 141
e 49 144
e 50 53
e 50 56
e 50 59
e 50 60
e 50 68
e 50 70
e 50 71
e 50 83
e 50 85
e 50 94
e 50 97
e 50 106
e 50 127
e 50 137
e 50 146
e 50 150
e 51 55
e 51 59
e 51 67
e 51 85
e 51 92
e 51 102
e 51 103
e 51 107
e 51 112
e 51 114
e 51 119
e 51 121
e 51 125
e 51 133
e 51 137
e 51 139
e 51 143
e 51 144
e 51 146
e 51 150
e 52 61
e 52 62
e 52 64
e 52 67
e 52 69
e 52 73
e 52 75
e 52 78
e 52 81
e 52 87
e 52 88
e 52 100
e 52 102
e 52 106
e 52 107
e 52 109
e 52 117
e 52 130
e 52 132
e 52 133
e 52 149
e 53 65
e 53 69
e 53 81
e 53 84
e 53 94
e 53 105
e 53 117
e 53 126
e 53 127
e 53 132
e 53 133
e 53 143
e 53 144
e 53 145
e 53 149
e 54 58
e 54 72
e 54 75
e 54 78
e 54 79
e 54 95
e 54 96
e 54 107
e 54 112
e 54 114
e 54 122
e 54 124
e 54 126
e 54 134
e 54 141
e 54 144
e 54 148
e 55 68
e 55 69
e 55 71
e 55 89
e 55 99
e 55 100
e 55 114
e 55 116
e 55 117
e 55 118
e 55 122
e 55 123
e 55 124
e 55 128
e 55 141
e 55 144
e 56 72
e 56 73
e 56 74
e 56 75
e 56 77
e 56 79
e 56 82
e 56 84
e 56 85
e 56 86
e 56 87
e 56 102
e 56 104
e 56 106
e 56 121
e 56 131
e 56 133
e 56 138
e 56 139
e 56 147
e 56 150
e 57 62
e 57 71
e 57 84
e 57 91
e 57 93
e 57 96
e 57 103
e 57 105
e 57 108
e 57 115
e 57 116
e 57 120
e 57 125
e 57 126
e 57 127
e 57 130
e 57 132
e 57 134
e 57 139
e 57 143
e 57 147
e 58 62
e 58 66
e 58 77
e 58 82
e 58 86
e 58 91
e 58 94
e 58 95
e 58 98
e 58 103
e 58 104
e 58 108
e 58 109
e 58 116
e 58 117
e 58 131
e 59 60
e 59 64
e 59 66
e 59 67
e 59 69
e 59 74
e 59 82
e 59 100
e 59 103
e 59 109
e 59 111
e 59 114
e 59 115
e 59 123
e 59 131
e 59 136
e 59 148
e 60 64
e 60 71
e 60 72
e 60 75
e 60 77
e 60 78
e 60 88
e 60 89
e 60 97
e 60 98
e 60 100
e 60 110
e 60 112
e 60 118
e 60 120
e 60 141
e 60 145
e 61 64
e 61 67
e 61 75
e 61 81
e 61 87
e 61 93
e 61 95
e 61 97
e 61 100
e 61 101
e 61 104
e 61 108
e 61 119
e 61 125
e 61 129
e 61 132
e 61 140
e 61 142
e 61 146
e 61 148
e 61 150
e 62 73
e 62 78
e 62 90
e 62 92
e 62 97
e 62 100
e 62 114
e 62 116
e 62 120
e 62 129
e 62 134
e 62 135
e 62 142
e 62 146
e 62 149
e 63 66
e 63 69
e 63 72
e 63 87
e 63 92
e 63 96
e 63 97
e 63 103
e 63 104
e 63 105
e 63 106
e 63 119
e 63 125
e 63 129
e 63 134
e 63 146
e 64 65
e 64 73
e 64 76
e 64 78
e 64 89
e 64 90
e 64 91
e 64 97
e 64 103
e 64 104
e 64 108
e 64 112
e 64 118
e 64 126
e 64 130
e 64 138
e 64 139
e 64 140
e 64 145
e 65 66
e 65 68
e 65 75
e 65 76
e 65 80
e 65 91
e 65 96
e 65 105
e 65 120
e 65 123
e 65 126
e 65 127
e 65 131
e 65 134
e 65 142
e 65 146
e 65 150
e 66 73
e 66 80
e 66 83
e 66 88
e 66 96
e 66 104
e 66 108
e 66 128
e 66 133
e 66 137
e 66 145
e 66 149
e 67 77
e 67 84
e 67 85
e 67 87
e 67 89
e 67 93
e 67 100
e 67 101
e 67 102
e 67 110
e 67 115
e 67 121
e 67 124
e 67 125
e 67 126
e 67 136
e 67 142
e 68 69
e 68 71
e 68 83
e 68 88
e 68 90
e 68 93
e 68 96
e 68 107
e 68 108
e 68 110
e 68 112
e 68 113
e 68 121
e 68 136
e 68 137
e 68 143
e 68 145
e 68 146
e 69 71
e 69 79
e 69 81
e 69 82
e 69 87
e 69 94
e 69 99
e 69 102
e 69 112
e 69 122
e 69 131
e 69 141
e 69 143
e 69 146
e 70 87
e 70 101
e 70 106
e 70 115
e 70 119
e 70 126
e 70 138
e 71 81
e 71 87
e 71 88
e 71 92
e 71 99
e 71 104
e 71 109
e 71 110
e 71 126
e 71 141
e 71 143
e 71 145
e 71 148
e 72 83
e 72 85
e 72 98
e 72 101
e 72 106
e 72 110
e 72 111
e 72 113
e 72 114
e 72 115
e 72 124
e 72 125
e 72 131
e 72 136
e 73 78
e 73 84
e 73 96
e 73 102
e 73 105
e 73 113
e 73 115
e 73 119
e 73 124
e 73 126
e 73 127
e 73 136
e 73 139
e 73 140
e 73 141
e 74 80
e 74 89
e 74 94
e 74 100
e 74 101
e 74 106
e 74 109
e 74 112
e 74 119
e 74 120
e 74 123
e 74 129
e 74 134
e 74 141
e 74 142
e 74 147
e 74 148
e 74 150
e 75 81
e 75 93
e 75 95
e 75 99
e 75 105
e 75 106
e 75 107
e 75 109
e 75 112
e 75 113
e 75 120
e 75 121
e 75 123
e 75 129
e 75 139
e 75 141
e 75 144
e 75 146
e 75 149
e 75 150
e 76 79
e 76 80
e 76 82
e 76 89
e 76 101
e 76 102
e 76 105
e 76 111
e 76 118
e 76 129
e 76 131
e 76 132
e 76 133
e 76 137
e 76 140
e 76 145
e 76 147
e 76 148
e 77 79
e 77 80
e 77 83
e 77 91
e 77 92
e 77 111
e 77 119
e 77 120
e 77 121
e 77 123
e 77 128
e 77 129
e 77 130
e 77 133
e 77 134
e 77 139
e 77 142
e 77 147
e 78 82
e 78 95
e 78 99
e 78 105
e 78 109
e 78 114
e 78 118
e 78 119
e 78 123
e 78 132
e 78 133
e 78 136
e 78 138
e 78 139
e 78 141
e 79 84
e 79 86
e 79 87
e 79 94
e 79 105
e 79 109
e 79 120
e 79 124
e 79 127
e 79 129
e 79 132
e 79 137
e 80 81
e 80 84
e 80 85
e 80 91
e 80 95
e 80 103
e 80 104
e 80 107
e 80 109
e 80 113
e 80 115
e 80 121
e 80 125
e 80 129
e 80 130
e 80 140
e 80 142
e 80 143
e 80 144
e 80 146
e 80 150
e 81 88
e 81 93
e 81 96
e 81 99
e 81 101
e 81 103
e 81 106
e 81 116
e 81 121
e 81 124
e 81 127
e 81 130
e 81 136
e 81 143
e 81 147
e 81 148
e 82 84
e 82 86
e 82 87
e 82 89
e 82 91
e 82 95
e 82 98
e 82 105
e 82 110
e 82 121
e 82 129
e 82 131
e 82 139
e 82 140
e 82 149
e 82 150
e 83 86
e 83 89
e 83 92
e 83 93
e 83 95
e 83 101
e 83 104
e 83 107
e 83 112
e 83 113
e 83 126
e 83 133
e 83 134
e 83 137
e 83 145
e 83 148
e 84 85
e 84 88
e 84 90
e 84 91
e 84 104
e 84 116
e 84 117
e 84 118
e 84 120
e 84 126
e 84 132
e 84 141
e 85 86
e 85 87
e 85 98
e 85 120
e 85 123
e 85 125
e 85 126
e 85 128
e 85 130
e 85 133
e 85 135
e 85 139
e 85 142
e 85 146
e 86 92
e 86 98
e 86 102
e 86 106
e 86 108
e 86 109
e 86 110
e 86 120
e 86 123
e 86 125
e 86 132
e 86 138
e 86 139
e 86 140
e 86 141
e 86 145
e 86 148
e 86 149
e 87 92
e 87 95
e 87 96
e 87 97
e 87 101
e 87 107
e 87 112
e 87 113
e 87 115
e 87 116
e 87 122
e 87 123
e 87 127
e 87 128
e 87 142
e 88 96
e 88 98
e 88 108
e 88 114
e 88 119
e 88 120
e 88 127
e 88 138
e 88 145
e 88 150
e 89 90
e 89 91
e 89 104
e 89 108
e 89 111
e 89 117
e 89 119
e 89 120
e 89 124
e 89 127
e 89 132
e 89 133
e 89 145
e 90 96
e 90 105
e 90 110
e 90 111
e 90 123
e 90 128
e 90 132
e 90 133
e 90 150
e 91 92
e 91 96
e 91 97
e 91 103
e 91 107
e 91 113
e 91 116
e 91 119
e 91 121
e 91 125
e 91 128
e 91 130
e 91 133
e 91 135
e 91 145
e 91 147
e 91 149
e 92 97
e 92 99
e 92 104
e 92 105
e 92 110
e 92 115
e 92 122
e 92 132
e 92 140
e 92 147
e 93 112
e 93 118
e 93 128
e 93 129
e 93 136
e 93 137
e 93 141
e 93 147
e 94 98
e 94 100
e 94 107
e 94 111
e 94 118
e 94 120
e 94 128
e 94 130
e 94 133
e 94 134
e 94 145
e 94 150
e 95 96
e 95 101
e 95 110
e 95 112
e 95 116
e 95 117
e 95 122
e 95 131
e 95 133
e 95 137
e 95 139
e 95 143
e 96 97
e 96 99
e 96 106
e 96 107
e 96 111
e 96 115
e 96 118
e 96 121
e 96 123
e 96 128
e 96 129
e 96 148
e 97 98
e 97 106
e 97 116
e 97 117
e 97 119
e 97 134
e 97 148
e 98 99
e 98 105
e 98 114
e 98 120
e 98 122
e 98 126
e 98 134
e 98 138
e 98 141
e 98 144
e 98 145
e 98 147
e 99 101
e 99 102
e 99 105
e 99 113
e 99 117
e 99 118
e 99 121
e 99 130
e 99 137
e 99 139
e 99 140
e 99 141
e 100 107
e 100 121
e 100 125
e 100 130
e 100 131
e 100 134
e 100 140
e 100 141
e 100 149
e 101 103
e 101 111
e 101 112
e 101 118
e 101 122
e 101 128
e 101 131
e 101 146
e 102 127
e 102 130
e 102 137
e 102 141
e 102 143
e 103 109
e 103 113
e 103 138
e 103 143
e 103 146
e 104 117
e 104 120
e 104 121
e 104 122
e 104 123
e 104 124
e 104 125
e 104 127
e 104 129
e 104 137
e 104 142
e 104 146
e 104 149
e 105 106
e 105 108
e 105 113
e 105 120
e 105 128
e 105 131
e 105 143
e 105 147
e 105 149
e 106 114
e 106 115
e 106 116
e 106 122
e 106 125
e 106 126
e 106 127
e 106 128
e 106 133
e 106 144
e 107 112
e 107 114
e 107 119
e 107 123
e 107 129
e 107 130
e 107 132
e 107 134
e 107 135
e 107 136
e 107 147
e 108 109
e 108 125
e 108 131
e 108 134
e 108 138
e 108 139
e 108 140
e 108 141
e 108 146
e 108 149
e 109 110
e 109 125
e 109 127
e 109 128
e 109 129
e 109 144
e 109 148
e 109 149
e 110 111
e 110 119
e 110 129
e 110 132
e 110 147
e 111 121
e 111 128
e 111 132
e 111 140
e 112 114
e 112 117
e 112 118
e 112 128
e 112 130
e 112 134
e 112 135
e 113 119
e 113 127
e 113 128
e 113 130
e 113 136
e 113 140
e 113 141
e 114 126
e 114 128
e 114 129
e 114 132
e 114 133
e 114 141
e 114 144
e 115 134
e 115 142
e 115 148
e 116 123
e 116 131
e 116 136
e 116 140
e 116 148
e 117 118
e 117 133
e 117 137
e 117 142
e 117 147
e 118 123
e 118 126
e 118 129
e 118 130
e 118 139
e 119 121
e 119 123
e 119 125
e 119 126
e 119 131
e 119 139
e 119 141
e 119 147
e 120 121
e 120 137
e 120 138
e 120 145
e 120 148
e 120 150
e 121 127
e 121 129
e 121 132
e 121 134
e 121 145
e 121 147
e 121 150
e 122 123
e 122 126
e 122 133
e 122 139
e 122 142
e 122 144
e 122 148
e 122 150
e 123 139
e 123 141
e 123 142
e 123 147
e 123 148
e 124 140
e 124 150
e 125 126
e 125 138
e 125 140
e 125 148
e 126 137
e 126 149
e 127 128
e 127 136
e 127 138
e 127 149
e 128 130
e 128 145
e 129 130
e 129 135
e 129 138
e 130 133
e 130 140
e 130 144
e 131 132
e 131 133
e 131 137
e 131 140
e 131 147
e 131 148
e 131 149
e 132 133
e 132 135
e 132 146
e 132 149
e 132 150
e 133 134
e 133 135
e 133 137
e 133 138
e 133 139
e 134 138
e 134 146
e 134 149
e 135 144
e 135 147
e 136 137
e 136 141
e 136 144
e 136 145
e 136 146
e 136 147
e 137 138
e 137 147
e 137 150
e 138 141
e 138 147
e 138 150
e 139 148
e 140 141
e 140 142
e 140 146
e 140 147
e 140 148
e 141 145
e 142 144
e 142 148
e 143 146
e 143 148
e 143 149
e 145 146
e 145 148
e 145 149
e 146 148
e 146 149
e 147 148
